proyfinal/src/viki/013/experimentInOfficeAgust.take6.output/b7acb291-9d0e-4ad4-8da5-8c9404fae688.als.dat
{'cnf.clauses': '118081',
 'cnf.totvars': '69608',
 'conflict literals': '5',
 'conflicts': '5',
 'decisions': '4632',
 'memused.mb': '16.49',
 'outcome': 'UNSAT',
 'propagations': '28691',
 'restarts': '1',
 'solver.msecs': 33,
 'task.msecs': 83}
