proyfinal/src/viki/013/experimentInOfficeAgust.take6.output/b7acb291-9d0e-4ad4-8da5-8c9404fae688.als.out
Reading from standard input... Use '--help' for help.
============================[ Problem Statistics ]=============================
|                                                                             |
|  Number of variables:         69608                                         |
|  Number of clauses:          118081                                         |
|  Parse time:                   0.02 s                                       |
|                                                                             |
============================[ Search Statistics ]==============================
| Conflicts |          ORIGINAL         |          LEARNT          | Progress |
|           |    Vars  Clauses Literals |    Limit  Clauses Lit/Cl |          |
===============================================================================
===============================================================================
restarts              : 1
conflicts             : 5              (148 /sec)
decisions             : 4632           (0.00 % random) (137070 /sec)
propagations          : 28691          (849022 /sec)
conflict literals     : 5              (0.00 % deleted)
Memory used           : 16.49 MB
CPU time              : 0.033793 s

UNSATISFIABLE
